sat
(:eliminated-applications 465
 :eliminated-vars         1368
 :max-memory              24.51
 :memory                  21.35
 :nlsat-conflicts         6245
 :nlsat-decisions         6623
 :nlsat-learned-added     5117
 :nlsat-learned-deleted   3019
 :nlsat-propagations      96510
 :nlsat-restarts          8
 :nlsat-stages            23138
 :num-allocs              51811317
 :rlimit-count            1876101
 :time                    9.91
 :total-time              9.92)
